
  32    4
  10   10   10   10

   0   0   0   0   0   3 2 30 31 
   3   1   1   1   0   2 29 3 
  10   0   3   5   1   1 4 
   7   3   0   5   2   1 5 
   8   0   6   3   7   3 28 27 6 
   5   4   4   0   6   1 7 
   1   2   5   0   4   1 8 
   1   4   5   8   0   1 9 
   1   3   3   6   0   1 10 
   9   6   6   0   4   1 11 
   4   4   0   3   2   1 12 
   4   4   1   2   0   1 13 
   1   0   5   2   4   2 26 14 
   5   0   1   3   3   1 15 
   7   6   3   0   4   1 16 
   3   5   3   0   4   1 17 
   5   0   3   5   3   1 18 
   3   1   3   0   2   1 19 
   7   0   1   6   3   1 20 
   9   0   9   3   4   1 21 
   2   7   0   6   3   1 22 
   3   8   3   5   0   1 23 
  10   0   5   3   6   1 24 
   5   3   7   3   0   1 25 
   1   3   0   5   9   1 32
   8   0   6   3   5   1 32
   7   3   0   6   3   1 32
   9   4   3   0   7   1 32
   2   7   2   4   0   1 32
   7   2   0   3   3   1 32
   9   0   8   2   3   1 32
   0   0   0   0   0   0 
